
Gurobi 8.1.1 (win64, Python) logging started 02/02/20 23:46:36

Academic license - for non-commercial use only
Optimize a model with 11 rows, 19 columns and 38 nonzeros
Variable types: 1 continuous, 18 integer (18 binary)
Coefficient statistics:
  Matrix range     [1e+00, 9e+00]
  Objective range  [1e+00, 1e+00]
  Bounds range     [1e+00, 1e+00]
  RHS range        [1e+00, 1e+00]
Found heuristic solution: objective 40.0000000
Presolve removed 9 rows and 17 columns
Presolve time: 0.00s
Presolved: 2 rows, 2 columns, 4 nonzeros
Variable types: 0 continuous, 2 integer (0 binary)

Root relaxation: objective 2.250000e+01, 1 iterations, 0.00 seconds

    Nodes    |    Current Node    |     Objective Bounds      |     Work
 Expl Unexpl |  Obj  Depth IntInf | Incumbent    BestBd   Gap | It/Node Time

     0     0   22.50000    0    2   40.00000   22.50000  43.8%     -    0s
H    0     0                      23.0000000   22.50000  2.17%     -    0s

Explored 1 nodes (1 simplex iterations) in 0.03 seconds
Thread count was 8 (of 8 available processors)

Solution count 2: 23 40 

Optimal solution found (tolerance 1.00e-04)
Best objective 2.300000000000e+01, best bound 2.300000000000e+01, gap 0.0000%
Optimize a model with 11 rows, 19 columns and 38 nonzeros
Variable types: 1 continuous, 18 integer (18 binary)
Coefficient statistics:
  Matrix range     [1e+00, 9e+00]
  Objective range  [1e+00, 1e+00]
  Bounds range     [1e+00, 1e+00]
  RHS range        [1e+00, 1e+00]
Found heuristic solution: objective 40.0000000
Presolve removed 9 rows and 17 columns
Presolve time: 0.00s
Presolved: 2 rows, 2 columns, 4 nonzeros
Variable types: 0 continuous, 2 integer (0 binary)

Root relaxation: objective 2.250000e+01, 1 iterations, 0.00 seconds

    Nodes    |    Current Node    |     Objective Bounds      |     Work
 Expl Unexpl |  Obj  Depth IntInf | Incumbent    BestBd   Gap | It/Node Time

     0     0   22.50000    0    2   40.00000   22.50000  43.8%     -    0s
H    0     0                      23.0000000   22.50000  2.17%     -    0s

Explored 1 nodes (1 simplex iterations) in 0.02 seconds
Thread count was 8 (of 8 available processors)

Solution count 2: 23 40 

Optimal solution found (tolerance 1.00e-04)
Best objective 2.300000000000e+01, best bound 2.300000000000e+01, gap 0.0000%
Optimize a model with 11 rows, 19 columns and 38 nonzeros
Variable types: 1 continuous, 18 integer (18 binary)
Coefficient statistics:
  Matrix range     [1e+00, 9e+00]
  Objective range  [1e+00, 1e+00]
  Bounds range     [1e+00, 1e+00]
  RHS range        [1e+00, 1e+00]
Found heuristic solution: objective 40.0000000
Presolve removed 9 rows and 17 columns
Presolve time: 0.00s
Presolved: 2 rows, 2 columns, 4 nonzeros
Variable types: 0 continuous, 2 integer (0 binary)

Root relaxation: objective 2.250000e+01, 1 iterations, 0.00 seconds

    Nodes    |    Current Node    |     Objective Bounds      |     Work
 Expl Unexpl |  Obj  Depth IntInf | Incumbent    BestBd   Gap | It/Node Time

     0     0   22.50000    0    2   40.00000   22.50000  43.8%     -    0s
H    0     0                      23.0000000   22.50000  2.17%     -    0s

Explored 1 nodes (1 simplex iterations) in 0.03 seconds
Thread count was 8 (of 8 available processors)

Solution count 2: 23 40 

Optimal solution found (tolerance 1.00e-04)
Best objective 2.300000000000e+01, best bound 2.300000000000e+01, gap 0.0000%
Optimize a model with 11 rows, 19 columns and 38 nonzeros
Variable types: 1 continuous, 18 integer (18 binary)
Coefficient statistics:
  Matrix range     [1e+00, 9e+00]
  Objective range  [1e+00, 1e+00]
  Bounds range     [1e+00, 1e+00]
  RHS range        [1e+00, 1e+00]
Found heuristic solution: objective 40.0000000
Presolve removed 9 rows and 17 columns
Presolve time: 0.00s
Presolved: 2 rows, 2 columns, 4 nonzeros
Variable types: 0 continuous, 2 integer (0 binary)

Root relaxation: objective 2.250000e+01, 1 iterations, 0.00 seconds

    Nodes    |    Current Node    |     Objective Bounds      |     Work
 Expl Unexpl |  Obj  Depth IntInf | Incumbent    BestBd   Gap | It/Node Time

     0     0   22.50000    0    2   40.00000   22.50000  43.8%     -    0s
H    0     0                      23.0000000   22.50000  2.17%     -    0s

Explored 1 nodes (1 simplex iterations) in 0.03 seconds
Thread count was 8 (of 8 available processors)

Solution count 2: 23 40 

Optimal solution found (tolerance 1.00e-04)
Best objective 2.300000000000e+01, best bound 2.300000000000e+01, gap 0.0000%

Gurobi 8.1.1 (win64, Python) logging started 02/03/20 00:34:58

Academic license - for non-commercial use only
Optimize a model with 1 rows, 5 columns and 5 nonzeros
Variable types: 0 continuous, 5 integer (5 binary)
Coefficient statistics:
  Matrix range     [1e+00, 5e+00]
  Objective range  [2e+00, 9e+00]
  Bounds range     [1e+00, 1e+00]
  RHS range        [8e+00, 8e+00]
Found heuristic solution: objective 12.0000000
Presolve time: 0.00s
Presolved: 1 rows, 5 columns, 5 nonzeros
Variable types: 0 continuous, 5 integer (5 binary)

Root relaxation: objective 1.720000e+01, 1 iterations, 0.00 seconds

    Nodes    |    Current Node    |     Objective Bounds      |     Work
 Expl Unexpl |  Obj  Depth IntInf | Incumbent    BestBd   Gap | It/Node Time

     0     0   17.20000    0    1   12.00000   17.20000  43.3%     -    0s
H    0     0                      14.0000000   17.20000  22.9%     -    0s
H    0     0                      16.0000000   17.20000  7.50%     -    0s

Explored 1 nodes (1 simplex iterations) in 0.03 seconds
Thread count was 8 (of 8 available processors)

Solution count 3: 16 14 12 

Optimal solution found (tolerance 1.00e-04)
Best objective 1.600000000000e+01, best bound 1.600000000000e+01, gap 0.0000%

Gurobi 8.1.1 (win64, Python) logging started 02/03/20 01:21:24

Academic license - for non-commercial use only
Optimize a model with 20 rows, 110 columns and 210 nonzeros
Variable types: 0 continuous, 110 integer (110 binary)
Coefficient statistics:
  Matrix range     [1e+00, 1e+01]
  Objective range  [1e+00, 1e+00]
  Bounds range     [1e+00, 1e+00]
  RHS range        [1e+00, 1e+00]
Presolve removed 0 rows and 70 columns
Presolve time: 0.00s

Explored 0 nodes (0 simplex iterations) in 0.01 seconds
Thread count was 1 (of 8 available processors)

Solution count 0

Model is infeasible
Best objective -, best bound -, gap -
Optimize a model with 20 rows, 110 columns and 210 nonzeros
Variable types: 0 continuous, 110 integer (110 binary)
Coefficient statistics:
  Matrix range     [1e+00, 1e+01]
  Objective range  [1e+00, 1e+00]
  Bounds range     [1e+00, 1e+00]
  RHS range        [1e+00, 1e+00]
Presolve removed 0 rows and 70 columns
Presolve time: 0.00s

Explored 0 nodes (0 simplex iterations) in 0.01 seconds
Thread count was 1 (of 8 available processors)

Solution count 0

Model is infeasible
Best objective -, best bound -, gap -
Optimize a model with 20 rows, 110 columns and 210 nonzeros
Variable types: 0 continuous, 110 integer (110 binary)
Coefficient statistics:
  Matrix range     [1e+00, 1e+01]
  Objective range  [1e+00, 1e+00]
  Bounds range     [1e+00, 1e+00]
  RHS range        [1e+00, 1e+00]
Presolve removed 0 rows and 70 columns
Presolve time: 0.00s

Explored 0 nodes (0 simplex iterations) in 0.01 seconds
Thread count was 1 (of 8 available processors)

Solution count 0

Model is infeasible
Best objective -, best bound -, gap -
Optimize a model with 20 rows, 110 columns and 210 nonzeros
Variable types: 0 continuous, 110 integer (110 binary)
Coefficient statistics:
  Matrix range     [1e+00, 1e+01]
  Objective range  [1e+00, 1e+00]
  Bounds range     [1e+00, 1e+00]
  RHS range        [1e+00, 1e+00]
Found heuristic solution: objective 8.0000000
Presolve time: 0.00s
Presolved: 20 rows, 110 columns, 210 nonzeros
Variable types: 0 continuous, 110 integer (110 binary)

Root relaxation: objective 5.000000e+00, 46 iterations, 0.00 seconds

    Nodes    |    Current Node    |     Objective Bounds      |     Work
 Expl Unexpl |  Obj  Depth IntInf | Incumbent    BestBd   Gap | It/Node Time

H    0     0                       5.0000000    0.00000   100%     -    0s
     0     0          -    0         5.00000    5.00000  0.00%     -    0s

Explored 0 nodes (75 simplex iterations) in 0.02 seconds
Thread count was 8 (of 8 available processors)

Solution count 2: 5 8 

Optimal solution found (tolerance 1.00e-04)
Best objective 5.000000000000e+00, best bound 5.000000000000e+00, gap 0.0000%
Optimize a model with 20 rows, 110 columns and 210 nonzeros
Variable types: 0 continuous, 110 integer (110 binary)
Coefficient statistics:
  Matrix range     [1e+00, 1e+01]
  Objective range  [1e+00, 1e+00]
  Bounds range     [1e+00, 1e+00]
  RHS range        [1e+00, 1e+00]
Found heuristic solution: objective 8.0000000
Presolve time: 0.00s
Presolved: 20 rows, 110 columns, 210 nonzeros
Variable types: 0 continuous, 110 integer (110 binary)

Root relaxation: objective 5.000000e+00, 46 iterations, 0.00 seconds

    Nodes    |    Current Node    |     Objective Bounds      |     Work
 Expl Unexpl |  Obj  Depth IntInf | Incumbent    BestBd   Gap | It/Node Time

H    0     0                       5.0000000    0.00000   100%     -    0s
     0     0          -    0         5.00000    5.00000  0.00%     -    0s

Explored 0 nodes (75 simplex iterations) in 0.03 seconds
Thread count was 8 (of 8 available processors)

Solution count 2: 5 8 

Optimal solution found (tolerance 1.00e-04)
Best objective 5.000000000000e+00, best bound 5.000000000000e+00, gap 0.0000%
Optimize a model with 1 rows, 5 columns and 5 nonzeros
Variable types: 0 continuous, 5 integer (5 binary)
Coefficient statistics:
  Matrix range     [1e+00, 5e+00]
  Objective range  [2e+00, 9e+00]
  Bounds range     [1e+00, 1e+00]
  RHS range        [8e+00, 8e+00]
Found heuristic solution: objective 12.0000000
Presolve time: 0.03s
Presolved: 1 rows, 5 columns, 5 nonzeros
Variable types: 0 continuous, 5 integer (5 binary)

Root relaxation: objective 1.720000e+01, 1 iterations, 0.00 seconds

    Nodes    |    Current Node    |     Objective Bounds      |     Work
 Expl Unexpl |  Obj  Depth IntInf | Incumbent    BestBd   Gap | It/Node Time

     0     0   17.20000    0    1   12.00000   17.20000  43.3%     -    0s
H    0     0                      14.0000000   17.20000  22.9%     -    0s
H    0     0                      16.0000000   17.20000  7.50%     -    0s

Explored 1 nodes (1 simplex iterations) in 0.10 seconds
Thread count was 8 (of 8 available processors)

Solution count 3: 16 14 12 

Optimal solution found (tolerance 1.00e-04)
Best objective 1.600000000000e+01, best bound 1.600000000000e+01, gap 0.0000%
Optimize a model with 20 rows, 110 columns and 210 nonzeros
Variable types: 0 continuous, 110 integer (110 binary)
Coefficient statistics:
  Matrix range     [1e+00, 1e+01]
  Objective range  [1e+00, 1e+00]
  Bounds range     [1e+00, 1e+00]
  RHS range        [1e+00, 1e+00]
Found heuristic solution: objective 8.0000000
Presolve time: 0.00s
Presolved: 20 rows, 110 columns, 210 nonzeros
Variable types: 0 continuous, 110 integer (110 binary)

Root relaxation: objective 5.000000e+00, 46 iterations, 0.00 seconds

    Nodes    |    Current Node    |     Objective Bounds      |     Work
 Expl Unexpl |  Obj  Depth IntInf | Incumbent    BestBd   Gap | It/Node Time

H    0     0                       5.0000000    0.00000   100%     -    0s
     0     0          -    0         5.00000    5.00000  0.00%     -    0s

Explored 0 nodes (75 simplex iterations) in 0.02 seconds
Thread count was 8 (of 8 available processors)

Solution count 2: 5 8 

Optimal solution found (tolerance 1.00e-04)
Best objective 5.000000000000e+00, best bound 5.000000000000e+00, gap 0.0000%
Optimize a model with 20 rows, 110 columns and 210 nonzeros
Variable types: 0 continuous, 110 integer (110 binary)
Coefficient statistics:
  Matrix range     [1e+00, 1e+01]
  Objective range  [1e+00, 1e+00]
  Bounds range     [1e+00, 1e+00]
  RHS range        [1e+00, 1e+00]
Found heuristic solution: objective 8.0000000
Presolve time: 0.00s
Presolved: 20 rows, 110 columns, 210 nonzeros
Variable types: 0 continuous, 110 integer (110 binary)

Root relaxation: objective 5.000000e+00, 46 iterations, 0.00 seconds

    Nodes    |    Current Node    |     Objective Bounds      |     Work
 Expl Unexpl |  Obj  Depth IntInf | Incumbent    BestBd   Gap | It/Node Time

H    0     0                       5.0000000    0.00000   100%     -    0s
     0     0          -    0         5.00000    5.00000  0.00%     -    0s

Explored 0 nodes (75 simplex iterations) in 0.02 seconds
Thread count was 8 (of 8 available processors)

Solution count 2: 5 8 

Optimal solution found (tolerance 1.00e-04)
Best objective 5.000000000000e+00, best bound 5.000000000000e+00, gap 0.0000%
Optimize a model with 20 rows, 110 columns and 200 nonzeros
Variable types: 0 continuous, 110 integer (110 binary)
Coefficient statistics:
  Matrix range     [1e+00, 1e+01]
  Objective range  [1e+00, 1e+00]
  Bounds range     [1e+00, 1e+00]
  RHS range        [1e+00, 1e+01]
Found heuristic solution: objective 0.0000000

Explored 0 nodes (0 simplex iterations) in 0.01 seconds
Thread count was 1 (of 8 available processors)

Solution count 1: 0 

Optimal solution found (tolerance 1.00e-04)
Best objective 0.000000000000e+00, best bound 0.000000000000e+00, gap 0.0000%
Optimize a model with 20 rows, 110 columns and 210 nonzeros
Variable types: 0 continuous, 110 integer (110 binary)
Coefficient statistics:
  Matrix range     [1e+00, 1e+01]
  Objective range  [1e+00, 1e+00]
  Bounds range     [1e+00, 1e+00]
  RHS range        [1e+00, 1e+00]
Found heuristic solution: objective 8.0000000
Presolve time: 0.00s
Presolved: 20 rows, 110 columns, 210 nonzeros
Variable types: 0 continuous, 110 integer (110 binary)

Root relaxation: objective 5.000000e+00, 46 iterations, 0.00 seconds

    Nodes    |    Current Node    |     Objective Bounds      |     Work
 Expl Unexpl |  Obj  Depth IntInf | Incumbent    BestBd   Gap | It/Node Time

H    0     0                       5.0000000    0.00000   100%     -    0s
     0     0          -    0         5.00000    5.00000  0.00%     -    0s

Explored 0 nodes (75 simplex iterations) in 0.02 seconds
Thread count was 8 (of 8 available processors)

Solution count 2: 5 8 

Optimal solution found (tolerance 1.00e-04)
Best objective 5.000000000000e+00, best bound 5.000000000000e+00, gap 0.0000%
Optimize a model with 20 rows, 110 columns and 210 nonzeros
Variable types: 0 continuous, 110 integer (110 binary)
Coefficient statistics:
  Matrix range     [1e+00, 2e+01]
  Objective range  [1e+00, 1e+00]
  Bounds range     [1e+00, 1e+00]
  RHS range        [1e+00, 1e+00]
Found heuristic solution: objective 6.0000000
Presolve time: 0.00s
Presolved: 20 rows, 110 columns, 210 nonzeros
Variable types: 0 continuous, 110 integer (110 binary)

Root relaxation: objective 2.619048e+00, 44 iterations, 0.00 seconds

    Nodes    |    Current Node    |     Objective Bounds      |     Work
 Expl Unexpl |  Obj  Depth IntInf | Incumbent    BestBd   Gap | It/Node Time

     0     0    2.61905    0    6    6.00000    2.61905  56.3%     -    0s
H    0     0                       3.0000000    2.61905  12.7%     -    0s

Explored 1 nodes (44 simplex iterations) in 0.02 seconds
Thread count was 8 (of 8 available processors)

Solution count 2: 3 6 

Optimal solution found (tolerance 1.00e-04)
Best objective 3.000000000000e+00, best bound 3.000000000000e+00, gap 0.0000%
Optimize a model with 20 rows, 110 columns and 210 nonzeros
Variable types: 0 continuous, 110 integer (110 binary)
Coefficient statistics:
  Matrix range     [1e+00, 2e+01]
  Objective range  [1e+00, 1e+00]
  Bounds range     [1e+00, 1e+00]
  RHS range        [1e+00, 1e+00]
Found heuristic solution: objective 6.0000000
Presolve time: 0.00s
Presolved: 20 rows, 110 columns, 210 nonzeros
Variable types: 0 continuous, 110 integer (110 binary)

Root relaxation: objective 2.619048e+00, 44 iterations, 0.00 seconds

    Nodes    |    Current Node    |     Objective Bounds      |     Work
 Expl Unexpl |  Obj  Depth IntInf | Incumbent    BestBd   Gap | It/Node Time

     0     0    2.61905    0    6    6.00000    2.61905  56.3%     -    0s
H    0     0                       3.0000000    2.61905  12.7%     -    0s

Explored 1 nodes (44 simplex iterations) in 0.03 seconds
Thread count was 8 (of 8 available processors)

Solution count 2: 3 6 

Optimal solution found (tolerance 1.00e-04)
Best objective 3.000000000000e+00, best bound 3.000000000000e+00, gap 0.0000%
Optimize a model with 20 rows, 110 columns and 210 nonzeros
Variable types: 0 continuous, 110 integer (110 binary)
Coefficient statistics:
  Matrix range     [1e+00, 2e+01]
  Objective range  [1e+00, 1e+00]
  Bounds range     [1e+00, 1e+00]
  RHS range        [1e+00, 1e+00]
Found heuristic solution: objective 6.0000000
Presolve time: 0.00s
Presolved: 20 rows, 110 columns, 210 nonzeros
Variable types: 0 continuous, 110 integer (110 binary)

Root relaxation: objective 2.619048e+00, 44 iterations, 0.00 seconds

    Nodes    |    Current Node    |     Objective Bounds      |     Work
 Expl Unexpl |  Obj  Depth IntInf | Incumbent    BestBd   Gap | It/Node Time

     0     0    2.61905    0    6    6.00000    2.61905  56.3%     -    0s
H    0     0                       3.0000000    2.61905  12.7%     -    0s

Explored 1 nodes (44 simplex iterations) in 0.03 seconds
Thread count was 8 (of 8 available processors)

Solution count 2: 3 6 

Optimal solution found (tolerance 1.00e-04)
Best objective 3.000000000000e+00, best bound 3.000000000000e+00, gap 0.0000%
Optimize a model with 20 rows, 110 columns and 210 nonzeros
Variable types: 0 continuous, 110 integer (110 binary)
Coefficient statistics:
  Matrix range     [1e+00, 2e+01]
  Objective range  [1e+00, 1e+00]
  Bounds range     [1e+00, 1e+00]
  RHS range        [1e+00, 1e+00]
Found heuristic solution: objective 6.0000000
Presolve time: 0.00s
Presolved: 20 rows, 110 columns, 210 nonzeros
Variable types: 0 continuous, 110 integer (110 binary)

Root relaxation: objective 2.619048e+00, 44 iterations, 0.00 seconds

    Nodes    |    Current Node    |     Objective Bounds      |     Work
 Expl Unexpl |  Obj  Depth IntInf | Incumbent    BestBd   Gap | It/Node Time

     0     0    2.61905    0    6    6.00000    2.61905  56.3%     -    0s
H    0     0                       3.0000000    2.61905  12.7%     -    0s

Explored 1 nodes (44 simplex iterations) in 0.03 seconds
Thread count was 8 (of 8 available processors)

Solution count 2: 3 6 

Optimal solution found (tolerance 1.00e-04)
Best objective 3.000000000000e+00, best bound 3.000000000000e+00, gap 0.0000%
